(declare-fun e () String)
(declare-fun c () String)
(declare-fun b () String)
(declare-fun d () String)
(declare-fun f () String)
(declare-fun a () String)
(assert (= (str.++ "db" c "a") b))
(assert (= (str.++ e b "hfc" a) (str.++ c "fb" d "dh")))
(assert (= (str.++ f "e" e) a))

(check-sat)
